c A SAT instance generated from a 3-CNF formula that had 50 clauses and 10 variables
p cnf 10 50
6 9 -7 0
-4 -5 -2 0
-1 8 -6 0
-2 -3 -5 0
8 -4 -9 0
8 9 -7 0
-10 -6 5 0
-10 3 -5 0
-8 -4 -5 0
-6 10 -9 0
9 -5 4 0
3 7 4 0
-8 -10 1 0
1 -7 -5 0
-5 6 -8 0
5 -1 -7 0
-6 5 -8 0
6 9 -5 0
9 7 -3 0
-3 -4 1 0
-9 -7 -10 0
7 2 -5 0
-7 -10 2 0
3 8 -10 0
-4 5 7 0
-4 -10 -8 0
-8 -9 6 0
9 -5 -7 0
2 -4 8 0
2 -8 10 0
-7 4 -8 0
10 2 3 0
3 4 -9 0
2 6 9 0
-4 -3 -1 0
7 1 4 0
3 1 10 0
8 1 6 0
-4 2 8 0
-5 -8 3 0
8 1 2 0
-4 -2 10 0
6 -9 -10 0
7 -4 -8 0
1 10 2 0
-7 9 5 0
1 -5 7 0
-2 -8 -7 0
4 9 3 0
10 -5 -3 0
